(declare-sort Loc 0)
(declare-const f242_0_createArray_Return Loc)
(declare-const f382_0_random_ArrayAccess Loc)
(declare-const f1_0_main_Load Loc)
(declare-const f464_0_createArray_GE Loc)
(declare-const f826_0_binarySearch_LE Loc)
(declare-const f826_0_binarySearch_LE' Loc)
(declare-const f1076_0_binarySearch_EQ Loc)
(declare-const f1078_0_binarySearch_EQ Loc)
(declare-const __init Loc)
(assert (distinct f242_0_createArray_Return f382_0_random_ArrayAccess f1_0_main_Load f464_0_createArray_GE f826_0_binarySearch_LE f826_0_binarySearch_LE' f1076_0_binarySearch_EQ f1078_0_binarySearch_EQ __init ))

(define-fun cfg_init ( (pc Loc) (src Loc) (rel Bool) ) Bool
  (and (= pc src) rel))

(define-fun cfg_trans2 ( (pc Loc) (src Loc)
                         (pc1 Loc) (dst Loc)
                         (rel Bool) ) Bool
  (and (= pc src) (= pc1 dst) rel))

(define-fun cfg_trans3 ( (pc Loc) (exit Loc)
                         (pc1 Loc) (call Loc)
                         (pc2 Loc) (return Loc)
                         (rel Bool) ) Bool
  (and (= pc exit) (= pc1 call) (= pc2 return) rel))

(define-fun init_main ( (pc Loc) (arg1 Int) (arg2 Int) (arg3 Int) (arg4 Int) (arg5 Int) (arg6 Int) (arg7 Int) ) Bool
  (cfg_init pc __init true))

(define-fun next_main (
                 (pc Loc) (arg1 Int) (arg2 Int) (arg3 Int) (arg4 Int) (arg5 Int) (arg6 Int) (arg7 Int)
                 (pc1 Loc) (arg1P Int) (arg2P Int) (arg3P Int) (arg4P Int) (arg5P Int) (arg6P Int) (arg7P Int)
             ) Bool
  (or
    (cfg_trans2 pc f242_0_createArray_Return pc1 f382_0_random_ArrayAccess (and (and (and (and (and (<= arg1P arg1) (<= arg1P arg2)) (> arg1 0)) (> arg2 0)) (> arg1P 0)) (= arg4 arg3P)))
    (cfg_trans2 pc f1_0_main_Load pc1 f382_0_random_ArrayAccess (and (and (and (<= arg1P arg1) (> arg1 0)) (> arg1P 0)) (= arg2 arg2P)))
    (cfg_trans2 pc f1_0_main_Load pc1 f464_0_createArray_GE (and (and (and (and (and (and (and (> arg5P (- 1)) (> arg2 0)) (<= arg1P arg1)) (> arg1 0)) (> arg1P 0)) (= 0 arg2P)) (= arg2 arg3P)) (= 1 arg4P)))
    (cfg_trans2 pc f464_0_createArray_GE pc1 f464_0_createArray_GE (and (and (and (and (and (and (and (and (and (and (< arg4 arg3) (> arg4 0)) (> arg5 arg2)) (> arg5 (- 1))) (<= arg1P arg1)) (> arg1 0)) (> arg1P 0)) (= (+ arg2 1) arg2P)) (= arg3 arg3P)) (= (+ arg4 1) arg4P)) (= arg5 arg5P)))
    (cfg_trans2 pc f382_0_random_ArrayAccess pc1 f826_0_binarySearch_LE (exists ((x22 Int) (x28 Int)) (and (and (and (and (and (and (and (and (and (and (and (and (< x22 arg2) (> x22 0)) (> arg3P (- 1))) (> arg2 0)) (> arg3 (- 1))) (> x28 1)) (<= arg2P arg1)) (> arg1 0)) (> arg1P 0)) (> arg2P 0)) (= 0 arg4P)) (= arg3 arg5P)) (= arg3 arg6P))))
    (cfg_trans2 pc f826_0_binarySearch_LE pc1 f826_0_binarySearch_LE' (exists ((x72 Int) (x83 Int) (x94 Int) (x123 Int) (x135 Int)) (and (and (and (and (and (and (and (and (and (and (and (and (and (and (and (and (and (and (and (and (and (and (and (>= (- arg5 arg4) x72) (> arg4 (- 1))) (> arg5 (- 1))) (>= arg5 arg4)) (> x72 (- 1))) (> arg6 (+ arg4 x72))) (> x83 1)) (>= (+ arg4 x72) 0)) (< (- (+ arg4 x72) 1) (+ arg4 x72))) (< x94 arg3)) (<= x123 arg1)) (<= x123 arg2)) (<= x135 arg1)) (<= x135 arg2)) (> arg1 0)) (> arg2 0)) (> x123 0)) (> x135 0)) (= arg1 arg1P)) (= arg2 arg2P)) (= arg3 arg3P)) (= arg4 arg4P)) (= arg5 arg5P)) (= arg6 arg6P))))
    (cfg_trans2 pc f826_0_binarySearch_LE pc1 f826_0_binarySearch_LE' (exists ((x145 Int) (x146 Int) (x147 Int) (x148 Int) (x149 Int)) (and (and (and (and (and (and (and (and (and (and (and (and (and (and (and (and (and (and (and (and (and (and (and (>= (- arg5 arg4) x145) (> arg4 (- 1))) (> arg5 (- 1))) (>= arg5 arg4)) (> x145 (- 1))) (> arg6 (+ arg4 x145))) (> x146 1)) (>= (+ arg4 x145) 0)) (< (- (+ arg4 x145) 1) (+ arg4 x145))) (> x147 arg3)) (<= x148 arg1)) (<= x148 arg2)) (<= x149 arg1)) (<= x149 arg2)) (> arg1 0)) (> arg2 0)) (> x148 0)) (> x149 0)) (= arg1 arg1P)) (= arg2 arg2P)) (= arg3 arg3P)) (= arg4 arg4P)) (= arg5 arg5P)) (= arg6 arg6P))))
    (cfg_trans2 pc f826_0_binarySearch_LE' pc1 f826_0_binarySearch_LE (exists ((x158 Int) (x159 Int) (x160 Int)) (and (and (and (and (and (and (and (and (and (and (and (and (and (and (and (and (and (and (and (and (and (and (and (>= (- arg5 arg4) x158) (> arg4 (- 1))) (> arg5 (- 1))) (>= arg5 arg4)) (> x158 (- 1))) (> arg6 (+ arg4 x158))) (> x159 1)) (>= (+ arg4 x158) 0)) (< (- (+ arg4 x158) 1) (+ arg4 x158))) (< x160 arg3)) (<= arg1P arg1)) (<= arg1P arg2)) (<= arg2P arg1)) (<= arg2P arg2)) (> arg1 0)) (> arg2 0)) (> arg1P 0)) (> arg2P 0)) (< (- (- arg5 arg4) (* 2 x158)) 2)) (>= (- (- arg5 arg4) (* 2 x158)) 0)) (= arg3 arg3P)) (= arg4 arg4P)) (= (- (+ arg4 x158) 1) arg5P)) (= arg6 arg6P))))
    (cfg_trans2 pc f826_0_binarySearch_LE' pc1 f826_0_binarySearch_LE (exists ((x169 Int) (x170 Int) (x171 Int)) (and (and (and (and (and (and (and (and (and (and (and (and (and (and (and (and (and (and (and (and (and (and (and (>= (- arg5 arg4) x169) (> arg4 (- 1))) (> arg5 (- 1))) (>= arg5 arg4)) (> x169 (- 1))) (> arg6 (+ arg4 x169))) (> x170 1)) (>= (+ arg4 x169) 0)) (< (- (+ arg4 x169) 1) (+ arg4 x169))) (> x171 arg3)) (<= arg1P arg1)) (<= arg1P arg2)) (<= arg2P arg1)) (<= arg2P arg2)) (> arg1 0)) (> arg2 0)) (> arg1P 0)) (> arg2P 0)) (< (- (- arg5 arg4) (* 2 x169)) 2)) (>= (- (- arg5 arg4) (* 2 x169)) 0)) (= arg3 arg3P)) (= arg4 arg4P)) (= (- (+ arg4 x169) 1) arg5P)) (= arg6 arg6P))))
    (cfg_trans2 pc f826_0_binarySearch_LE pc1 f826_0_binarySearch_LE' (exists ((x178 Int) (x179 Int) (x180 Int) (x181 Int) (x182 Int)) (and (and (and (and (and (and (and (and (and (and (and (and (and (and (and (and (and (and (and (and (and (and (and (>= (- arg5 arg4) x178) (> arg4 (- 1))) (> arg5 (- 1))) (>= arg5 arg4)) (> x178 (- 1))) (> arg6 (+ arg4 x178))) (> x179 1)) (>= (+ arg4 x178) 0)) (< (- (+ arg4 x178) 1) (+ arg4 x178))) (< x180 arg3)) (<= x181 arg1)) (<= x181 arg2)) (<= x182 arg1)) (<= x182 arg2)) (> arg1 0)) (> arg2 0)) (> x181 0)) (> x182 0)) (= arg1 arg1P)) (= arg2 arg2P)) (= arg3 arg3P)) (= arg4 arg4P)) (= arg5 arg5P)) (= arg6 arg6P))))
    (cfg_trans2 pc f826_0_binarySearch_LE pc1 f826_0_binarySearch_LE' (exists ((x189 Int) (x190 Int) (x191 Int) (x192 Int) (x193 Int)) (and (and (and (and (and (and (and (and (and (and (and (and (and (and (and (and (and (and (and (and (and (and (and (>= (- arg5 arg4) x189) (> arg4 (- 1))) (> arg5 (- 1))) (>= arg5 arg4)) (> x189 (- 1))) (> arg6 (+ arg4 x189))) (> x190 1)) (>= (+ arg4 x189) 0)) (< (- (+ arg4 x189) 1) (+ arg4 x189))) (> x191 arg3)) (<= x192 arg1)) (<= x192 arg2)) (<= x193 arg1)) (<= x193 arg2)) (> arg1 0)) (> arg2 0)) (> x192 0)) (> x193 0)) (= arg1 arg1P)) (= arg2 arg2P)) (= arg3 arg3P)) (= arg4 arg4P)) (= arg5 arg5P)) (= arg6 arg6P))))
    (cfg_trans2 pc f826_0_binarySearch_LE' pc1 f826_0_binarySearch_LE (exists ((x202 Int) (x203 Int) (x204 Int)) (and (and (and (and (and (and (and (and (and (and (and (and (and (and (and (and (and (and (and (and (and (and (and (>= (- arg5 arg4) x202) (> arg4 (- 1))) (> arg5 (- 1))) (>= arg5 arg4)) (> x202 (- 1))) (> arg6 (+ arg4 x202))) (> x203 1)) (>= (+ arg4 x202) 0)) (< (- (+ arg4 x202) 1) (+ arg4 x202))) (< x204 arg3)) (<= arg1P arg1)) (<= arg1P arg2)) (<= arg2P arg1)) (<= arg2P arg2)) (> arg1 0)) (> arg2 0)) (> arg1P 0)) (> arg2P 0)) (< (- (- arg5 arg4) (* 2 x202)) 2)) (>= (- (- arg5 arg4) (* 2 x202)) 0)) (= arg3 arg3P)) (= arg4 arg4P)) (= (- (+ arg4 x202) 1) arg5P)) (= arg6 arg6P))))
    (cfg_trans2 pc f826_0_binarySearch_LE' pc1 f826_0_binarySearch_LE (exists ((x213 Int) (x214 Int) (x215 Int)) (and (and (and (and (and (and (and (and (and (and (and (and (and (and (and (and (and (and (and (and (and (and (and (>= (- arg5 arg4) x213) (> arg4 (- 1))) (> arg5 (- 1))) (>= arg5 arg4)) (> x213 (- 1))) (> arg6 (+ arg4 x213))) (> x214 1)) (>= (+ arg4 x213) 0)) (< (- (+ arg4 x213) 1) (+ arg4 x213))) (> x215 arg3)) (<= arg1P arg1)) (<= arg1P arg2)) (<= arg2P arg1)) (<= arg2P arg2)) (> arg1 0)) (> arg2 0)) (> arg1P 0)) (> arg2P 0)) (< (- (- arg5 arg4) (* 2 x213)) 2)) (>= (- (- arg5 arg4) (* 2 x213)) 0)) (= arg3 arg3P)) (= arg4 arg4P)) (= (- (+ arg4 x213) 1) arg5P)) (= arg6 arg6P))))
    (cfg_trans2 pc f826_0_binarySearch_LE pc1 f826_0_binarySearch_LE' (exists ((x222 Int) (x223 Int) (x224 Int) (x225 Int)) (and (and (and (and (and (and (and (and (and (and (and (and (and (and (and (and (and (and (and (and (>= (- arg5 arg4) x222) (> arg4 (- 1))) (> arg5 (- 1))) (>= arg5 arg4)) (> x222 (- 1))) (> arg6 (+ arg4 x222))) (> x223 1)) (>= (+ arg4 x222) 0)) (< (- (+ arg4 x222) 1) (+ arg4 x222))) (< x224 arg3)) (<= x225 arg1)) (<= x225 arg2)) (> arg1 0)) (> arg2 0)) (> x225 0)) (= arg1 arg1P)) (= arg2 arg2P)) (= arg3 arg3P)) (= arg4 arg4P)) (= arg5 arg5P)) (= arg6 arg6P))))
    (cfg_trans2 pc f826_0_binarySearch_LE pc1 f826_0_binarySearch_LE' (exists ((x232 Int) (x233 Int) (x234 Int) (x235 Int)) (and (and (and (and (and (and (and (and (and (and (and (and (and (and (and (and (and (and (and (and (>= (- arg5 arg4) x232) (> arg4 (- 1))) (> arg5 (- 1))) (>= arg5 arg4)) (> x232 (- 1))) (> arg6 (+ arg4 x232))) (> x233 1)) (>= (+ arg4 x232) 0)) (< (- (+ arg4 x232) 1) (+ arg4 x232))) (> x234 arg3)) (<= x235 arg1)) (<= x235 arg2)) (> arg1 0)) (> arg2 0)) (> x235 0)) (= arg1 arg1P)) (= arg2 arg2P)) (= arg3 arg3P)) (= arg4 arg4P)) (= arg5 arg5P)) (= arg6 arg6P))))
    (cfg_trans2 pc f826_0_binarySearch_LE' pc1 f1076_0_binarySearch_EQ (exists ((x243 Int) (x245 Int) (x246 Int)) (and (and (and (and (and (and (and (and (and (and (and (and (and (and (and (and (and (and (and (and (and (>= (- arg5 arg4) x243) (> arg4 (- 1))) (> arg5 (- 1))) (>= arg5 arg4)) (> x243 (- 1))) (> arg6 (+ arg4 x243))) (> x245 1)) (>= (+ arg4 x243) 0)) (< (- (+ arg4 x243) 1) (+ arg4 x243))) (< x246 arg3)) (<= arg1P arg1)) (<= arg1P arg2)) (> arg1 0)) (> arg2 0)) (> arg1P 0)) (< (- (- arg5 arg4) (* 2 x243)) 2)) (>= (- (- arg5 arg4) (* 2 x243)) 0)) (= arg3 arg2P)) (= arg5 arg3P)) (= (+ arg4 x243) arg4P)) (= 0 arg5P)) (= arg6 arg7P))))
    (cfg_trans2 pc f826_0_binarySearch_LE' pc1 f1076_0_binarySearch_EQ (exists ((x254 Int) (x256 Int) (x257 Int)) (and (and (and (and (and (and (and (and (and (and (and (and (and (and (and (and (and (and (and (and (and (>= (- arg5 arg4) x254) (> arg4 (- 1))) (> arg5 (- 1))) (>= arg5 arg4)) (> x254 (- 1))) (> arg6 (+ arg4 x254))) (> x256 1)) (>= (+ arg4 x254) 0)) (< (- (+ arg4 x254) 1) (+ arg4 x254))) (> x257 arg3)) (<= arg1P arg1)) (<= arg1P arg2)) (> arg1 0)) (> arg2 0)) (> arg1P 0)) (< (- (- arg5 arg4) (* 2 x254)) 2)) (>= (- (- arg5 arg4) (* 2 x254)) 0)) (= arg3 arg2P)) (= arg5 arg3P)) (= (+ arg4 x254) arg4P)) (= 0 arg5P)) (= arg6 arg7P))))
    (cfg_trans2 pc f826_0_binarySearch_LE pc1 f826_0_binarySearch_LE' (exists ((x264 Int) (x265 Int) (x266 Int) (x267 Int)) (and (and (and (and (and (and (and (and (and (and (and (and (and (and (and (and (and (and (and (and (>= (- arg5 arg4) x264) (> arg4 (- 1))) (> arg5 (- 1))) (>= arg5 arg4)) (> x264 (- 1))) (> arg6 (+ arg4 x264))) (> x265 1)) (>= (+ arg4 x264) 0)) (< (- (+ arg4 x264) 1) (+ arg4 x264))) (< x266 arg3)) (<= x267 arg1)) (<= x267 arg2)) (> arg1 0)) (> arg2 0)) (> x267 0)) (= arg1 arg1P)) (= arg2 arg2P)) (= arg3 arg3P)) (= arg4 arg4P)) (= arg5 arg5P)) (= arg6 arg6P))))
    (cfg_trans2 pc f826_0_binarySearch_LE pc1 f826_0_binarySearch_LE' (exists ((x274 Int) (x275 Int) (x276 Int) (x277 Int)) (and (and (and (and (and (and (and (and (and (and (and (and (and (and (and (and (and (and (and (and (>= (- arg5 arg4) x274) (> arg4 (- 1))) (> arg5 (- 1))) (>= arg5 arg4)) (> x274 (- 1))) (> arg6 (+ arg4 x274))) (> x275 1)) (>= (+ arg4 x274) 0)) (< (- (+ arg4 x274) 1) (+ arg4 x274))) (> x276 arg3)) (<= x277 arg1)) (<= x277 arg2)) (> arg1 0)) (> arg2 0)) (> x277 0)) (= arg1 arg1P)) (= arg2 arg2P)) (= arg3 arg3P)) (= arg4 arg4P)) (= arg5 arg5P)) (= arg6 arg6P))))
    (cfg_trans2 pc f826_0_binarySearch_LE' pc1 f1078_0_binarySearch_EQ (exists ((x285 Int) (x287 Int) (x288 Int)) (and (and (and (and (and (and (and (and (and (and (and (and (and (and (and (and (and (and (and (and (and (>= (- arg5 arg4) x285) (> arg4 (- 1))) (> arg5 (- 1))) (>= arg5 arg4)) (> x285 (- 1))) (> arg6 (+ arg4 x285))) (> x287 1)) (>= (+ arg4 x285) 0)) (< (- (+ arg4 x285) 1) (+ arg4 x285))) (< x288 arg3)) (<= arg1P arg1)) (<= arg1P arg2)) (> arg1 0)) (> arg2 0)) (> arg1P 0)) (< (- (- arg5 arg4) (* 2 x285)) 2)) (>= (- (- arg5 arg4) (* 2 x285)) 0)) (= arg3 arg2P)) (= arg5 arg3P)) (= (+ arg4 x285) arg4P)) (= 0 arg5P)) (= arg6 arg7P))))
    (cfg_trans2 pc f826_0_binarySearch_LE' pc1 f1078_0_binarySearch_EQ (exists ((x296 Int) (x298 Int) (x299 Int)) (and (and (and (and (and (and (and (and (and (and (and (and (and (and (and (and (and (and (and (and (and (>= (- arg5 arg4) x296) (> arg4 (- 1))) (> arg5 (- 1))) (>= arg5 arg4)) (> x296 (- 1))) (> arg6 (+ arg4 x296))) (> x298 1)) (>= (+ arg4 x296) 0)) (< (- (+ arg4 x296) 1) (+ arg4 x296))) (> x299 arg3)) (<= arg1P arg1)) (<= arg1P arg2)) (> arg1 0)) (> arg2 0)) (> arg1P 0)) (< (- (- arg5 arg4) (* 2 x296)) 2)) (>= (- (- arg5 arg4) (* 2 x296)) 0)) (= arg3 arg2P)) (= arg5 arg3P)) (= (+ arg4 x296) arg4P)) (= 0 arg5P)) (= arg6 arg7P))))
    (cfg_trans2 pc f826_0_binarySearch_LE pc1 f826_0_binarySearch_LE' (exists ((x306 Int) (x307 Int) (x308 Int) (x309 Int)) (and (and (and (and (and (and (and (and (and (and (and (and (and (and (and (and (and (and (and (and (>= (- arg5 arg4) x306) (> arg4 (- 1))) (> arg5 (- 1))) (>= arg5 arg4)) (> x306 (- 1))) (> arg6 (+ arg4 x306))) (> x307 1)) (>= (+ arg4 x306) 0)) (< (- (+ arg4 x306) 1) (+ arg4 x306))) (< x308 arg3)) (<= x309 arg1)) (<= x309 arg2)) (> arg1 0)) (> arg2 0)) (> x309 0)) (= arg1 arg1P)) (= arg2 arg2P)) (= arg3 arg3P)) (= arg4 arg4P)) (= arg5 arg5P)) (= arg6 arg6P))))
    (cfg_trans2 pc f826_0_binarySearch_LE pc1 f826_0_binarySearch_LE' (exists ((x316 Int) (x317 Int) (x318 Int) (x319 Int)) (and (and (and (and (and (and (and (and (and (and (and (and (and (and (and (and (and (and (and (and (>= (- arg5 arg4) x316) (> arg4 (- 1))) (> arg5 (- 1))) (>= arg5 arg4)) (> x316 (- 1))) (> arg6 (+ arg4 x316))) (> x317 1)) (>= (+ arg4 x316) 0)) (< (- (+ arg4 x316) 1) (+ arg4 x316))) (> x318 arg3)) (<= x319 arg1)) (<= x319 arg2)) (> arg1 0)) (> arg2 0)) (> x319 0)) (= arg1 arg1P)) (= arg2 arg2P)) (= arg3 arg3P)) (= arg4 arg4P)) (= arg5 arg5P)) (= arg6 arg6P))))
    (cfg_trans2 pc f826_0_binarySearch_LE' pc1 f1076_0_binarySearch_EQ (exists ((x327 Int) (x329 Int) (x330 Int)) (and (and (and (and (and (and (and (and (and (and (and (and (and (and (and (and (and (and (and (and (and (>= (- arg5 arg4) x327) (> arg4 (- 1))) (> arg5 (- 1))) (>= arg5 arg4)) (> x327 (- 1))) (> arg6 (+ arg4 x327))) (> x329 1)) (>= (+ arg4 x327) 0)) (< (- (+ arg4 x327) 1) (+ arg4 x327))) (< x330 arg3)) (<= arg1P arg1)) (<= arg1P arg2)) (> arg1 0)) (> arg2 0)) (> arg1P 0)) (< (- (- arg5 arg4) (* 2 x327)) 2)) (>= (- (- arg5 arg4) (* 2 x327)) 0)) (= arg3 arg2P)) (= arg5 arg3P)) (= (+ arg4 x327) arg4P)) (= 1 arg5P)) (= arg6 arg7P))))
    (cfg_trans2 pc f826_0_binarySearch_LE' pc1 f1076_0_binarySearch_EQ (exists ((x338 Int) (x340 Int) (x341 Int)) (and (and (and (and (and (and (and (and (and (and (and (and (and (and (and (and (and (and (and (and (and (>= (- arg5 arg4) x338) (> arg4 (- 1))) (> arg5 (- 1))) (>= arg5 arg4)) (> x338 (- 1))) (> arg6 (+ arg4 x338))) (> x340 1)) (>= (+ arg4 x338) 0)) (< (- (+ arg4 x338) 1) (+ arg4 x338))) (> x341 arg3)) (<= arg1P arg1)) (<= arg1P arg2)) (> arg1 0)) (> arg2 0)) (> arg1P 0)) (< (- (- arg5 arg4) (* 2 x338)) 2)) (>= (- (- arg5 arg4) (* 2 x338)) 0)) (= arg3 arg2P)) (= arg5 arg3P)) (= (+ arg4 x338) arg4P)) (= 1 arg5P)) (= arg6 arg7P))))
    (cfg_trans2 pc f826_0_binarySearch_LE pc1 f826_0_binarySearch_LE' (exists ((x348 Int) (x349 Int) (x350 Int) (x351 Int)) (and (and (and (and (and (and (and (and (and (and (and (and (and (and (and (and (and (and (and (and (>= (- arg5 arg4) x348) (> arg4 (- 1))) (> arg5 (- 1))) (>= arg5 arg4)) (> x348 (- 1))) (> arg6 (+ arg4 x348))) (> x349 1)) (>= (+ arg4 x348) 0)) (< (- (+ arg4 x348) 1) (+ arg4 x348))) (< x350 arg3)) (<= x351 arg1)) (<= x351 arg2)) (> arg1 0)) (> arg2 0)) (> x351 0)) (= arg1 arg1P)) (= arg2 arg2P)) (= arg3 arg3P)) (= arg4 arg4P)) (= arg5 arg5P)) (= arg6 arg6P))))
    (cfg_trans2 pc f826_0_binarySearch_LE pc1 f826_0_binarySearch_LE' (exists ((x358 Int) (x359 Int) (x360 Int) (x361 Int)) (and (and (and (and (and (and (and (and (and (and (and (and (and (and (and (and (and (and (and (and (>= (- arg5 arg4) x358) (> arg4 (- 1))) (> arg5 (- 1))) (>= arg5 arg4)) (> x358 (- 1))) (> arg6 (+ arg4 x358))) (> x359 1)) (>= (+ arg4 x358) 0)) (< (- (+ arg4 x358) 1) (+ arg4 x358))) (> x360 arg3)) (<= x361 arg1)) (<= x361 arg2)) (> arg1 0)) (> arg2 0)) (> x361 0)) (= arg1 arg1P)) (= arg2 arg2P)) (= arg3 arg3P)) (= arg4 arg4P)) (= arg5 arg5P)) (= arg6 arg6P))))
    (cfg_trans2 pc f826_0_binarySearch_LE' pc1 f1078_0_binarySearch_EQ (exists ((x369 Int) (x371 Int) (x372 Int)) (and (and (and (and (and (and (and (and (and (and (and (and (and (and (and (and (and (and (and (and (and (>= (- arg5 arg4) x369) (> arg4 (- 1))) (> arg5 (- 1))) (>= arg5 arg4)) (> x369 (- 1))) (> arg6 (+ arg4 x369))) (> x371 1)) (>= (+ arg4 x369) 0)) (< (- (+ arg4 x369) 1) (+ arg4 x369))) (< x372 arg3)) (<= arg1P arg1)) (<= arg1P arg2)) (> arg1 0)) (> arg2 0)) (> arg1P 0)) (< (- (- arg5 arg4) (* 2 x369)) 2)) (>= (- (- arg5 arg4) (* 2 x369)) 0)) (= arg3 arg2P)) (= arg5 arg3P)) (= (+ arg4 x369) arg4P)) (= 1 arg5P)) (= arg6 arg7P))))
    (cfg_trans2 pc f826_0_binarySearch_LE' pc1 f1078_0_binarySearch_EQ (exists ((x380 Int) (x382 Int) (x383 Int)) (and (and (and (and (and (and (and (and (and (and (and (and (and (and (and (and (and (and (and (and (and (>= (- arg5 arg4) x380) (> arg4 (- 1))) (> arg5 (- 1))) (>= arg5 arg4)) (> x380 (- 1))) (> arg6 (+ arg4 x380))) (> x382 1)) (>= (+ arg4 x380) 0)) (< (- (+ arg4 x380) 1) (+ arg4 x380))) (> x383 arg3)) (<= arg1P arg1)) (<= arg1P arg2)) (> arg1 0)) (> arg2 0)) (> arg1P 0)) (< (- (- arg5 arg4) (* 2 x380)) 2)) (>= (- (- arg5 arg4) (* 2 x380)) 0)) (= arg3 arg2P)) (= arg5 arg3P)) (= (+ arg4 x380) arg4P)) (= 1 arg5P)) (= arg6 arg7P))))
    (cfg_trans2 pc f1078_0_binarySearch_EQ pc1 f826_0_binarySearch_LE (exists ((x105 Int)) (and (and (and (and (and (and (and (and (and (and (and (> x105 1) (> arg4 (- 1))) (>= arg1 arg1P)) (>= arg1 arg2P)) (> arg1 0)) (> arg1P 0)) (> arg2P 0)) (= 0 arg5)) (= arg2 arg3P)) (= (+ arg4 1) arg4P)) (= arg3 arg5P)) (= arg7 arg6P))))
    (cfg_trans2 pc f1076_0_binarySearch_EQ pc1 f826_0_binarySearch_LE (exists ((x393 Int)) (and (and (and (and (and (and (and (and (and (and (and (> x393 1) (> arg4 (- 1))) (<= arg1P arg1)) (<= arg2P arg1)) (> arg1 0)) (> arg1P 0)) (> arg2P 0)) (= 0 arg5)) (= arg2 arg3P)) (= (+ arg4 1) arg4P)) (= arg3 arg5P)) (= arg7 arg6P))))
    (cfg_trans2 pc f826_0_binarySearch_LE pc1 f826_0_binarySearch_LE' (exists ((x400 Int) (x401 Int) (x402 Int) (x403 Int)) (and (and (and (and (and (and (and (and (and (and (and (and (and (and (and (and (and (and (and (and (>= (- arg5 arg4) x400) (> arg4 (- 1))) (> arg5 (- 1))) (>= arg5 arg4)) (> x400 (- 1))) (> arg6 (+ arg4 x400))) (> x401 1)) (>= (+ arg4 x400) 0)) (< (- (+ arg4 x400) 1) (+ arg4 x400))) (< x402 arg3)) (<= x403 arg1)) (<= x403 arg2)) (> arg1 0)) (> arg2 0)) (> x403 0)) (= arg1 arg1P)) (= arg2 arg2P)) (= arg3 arg3P)) (= arg4 arg4P)) (= arg5 arg5P)) (= arg6 arg6P))))
    (cfg_trans2 pc f826_0_binarySearch_LE pc1 f826_0_binarySearch_LE' (exists ((x410 Int) (x411 Int) (x412 Int) (x413 Int)) (and (and (and (and (and (and (and (and (and (and (and (and (and (and (and (and (and (and (and (and (>= (- arg5 arg4) x410) (> arg4 (- 1))) (> arg5 (- 1))) (>= arg5 arg4)) (> x410 (- 1))) (> arg6 (+ arg4 x410))) (> x411 1)) (>= (+ arg4 x410) 0)) (< (- (+ arg4 x410) 1) (+ arg4 x410))) (> x412 arg3)) (<= x413 arg1)) (<= x413 arg2)) (> arg1 0)) (> arg2 0)) (> x413 0)) (= arg1 arg1P)) (= arg2 arg2P)) (= arg3 arg3P)) (= arg4 arg4P)) (= arg5 arg5P)) (= arg6 arg6P))))
    (cfg_trans2 pc f826_0_binarySearch_LE' pc1 f1076_0_binarySearch_EQ (exists ((x421 Int) (x424 Int) (x425 Int)) (and (and (and (and (and (and (and (and (and (and (and (and (and (and (and (and (and (and (and (and (>= (- arg5 arg4) x421) (> arg4 (- 1))) (> arg5 (- 1))) (>= arg5 arg4)) (> x421 (- 1))) (> arg6 (+ arg4 x421))) (> x424 1)) (>= (+ arg4 x421) 0)) (< (- (+ arg4 x421) 1) (+ arg4 x421))) (< x425 arg3)) (<= arg1P arg1)) (<= arg1P arg2)) (> arg1 0)) (> arg2 0)) (> arg1P 0)) (< (- (- arg5 arg4) (* 2 x421)) 2)) (>= (- (- arg5 arg4) (* 2 x421)) 0)) (= arg3 arg2P)) (= arg5 arg3P)) (= (+ arg4 x421) arg4P)) (= arg6 arg7P))))
    (cfg_trans2 pc f826_0_binarySearch_LE' pc1 f1076_0_binarySearch_EQ (exists ((x433 Int) (x436 Int) (x437 Int)) (and (and (and (and (and (and (and (and (and (and (and (and (and (and (and (and (and (and (and (and (>= (- arg5 arg4) x433) (> arg4 (- 1))) (> arg5 (- 1))) (>= arg5 arg4)) (> x433 (- 1))) (> arg6 (+ arg4 x433))) (> x436 1)) (>= (+ arg4 x433) 0)) (< (- (+ arg4 x433) 1) (+ arg4 x433))) (> x437 arg3)) (<= arg1P arg1)) (<= arg1P arg2)) (> arg1 0)) (> arg2 0)) (> arg1P 0)) (< (- (- arg5 arg4) (* 2 x433)) 2)) (>= (- (- arg5 arg4) (* 2 x433)) 0)) (= arg3 arg2P)) (= arg5 arg3P)) (= (+ arg4 x433) arg4P)) (= arg6 arg7P))))
    (cfg_trans2 pc f826_0_binarySearch_LE pc1 f826_0_binarySearch_LE' (exists ((x444 Int) (x445 Int) (x446 Int) (x447 Int)) (and (and (and (and (and (and (and (and (and (and (and (and (and (and (and (and (and (and (and (and (>= (- arg5 arg4) x444) (> arg4 (- 1))) (> arg5 (- 1))) (>= arg5 arg4)) (> x444 (- 1))) (> arg6 (+ arg4 x444))) (> x445 1)) (>= (+ arg4 x444) 0)) (< (- (+ arg4 x444) 1) (+ arg4 x444))) (< x446 arg3)) (<= x447 arg1)) (<= x447 arg2)) (> arg1 0)) (> arg2 0)) (> x447 0)) (= arg1 arg1P)) (= arg2 arg2P)) (= arg3 arg3P)) (= arg4 arg4P)) (= arg5 arg5P)) (= arg6 arg6P))))
    (cfg_trans2 pc f826_0_binarySearch_LE pc1 f826_0_binarySearch_LE' (exists ((x454 Int) (x455 Int) (x456 Int) (x457 Int)) (and (and (and (and (and (and (and (and (and (and (and (and (and (and (and (and (and (and (and (and (>= (- arg5 arg4) x454) (> arg4 (- 1))) (> arg5 (- 1))) (>= arg5 arg4)) (> x454 (- 1))) (> arg6 (+ arg4 x454))) (> x455 1)) (>= (+ arg4 x454) 0)) (< (- (+ arg4 x454) 1) (+ arg4 x454))) (> x456 arg3)) (<= x457 arg1)) (<= x457 arg2)) (> arg1 0)) (> arg2 0)) (> x457 0)) (= arg1 arg1P)) (= arg2 arg2P)) (= arg3 arg3P)) (= arg4 arg4P)) (= arg5 arg5P)) (= arg6 arg6P))))
    (cfg_trans2 pc f826_0_binarySearch_LE' pc1 f1078_0_binarySearch_EQ (exists ((x465 Int) (x468 Int) (x469 Int)) (and (and (and (and (and (and (and (and (and (and (and (and (and (and (and (and (and (and (and (and (>= (- arg5 arg4) x465) (> arg4 (- 1))) (> arg5 (- 1))) (>= arg5 arg4)) (> x465 (- 1))) (> arg6 (+ arg4 x465))) (> x468 1)) (>= (+ arg4 x465) 0)) (< (- (+ arg4 x465) 1) (+ arg4 x465))) (< x469 arg3)) (<= arg1P arg1)) (<= arg1P arg2)) (> arg1 0)) (> arg2 0)) (> arg1P 0)) (< (- (- arg5 arg4) (* 2 x465)) 2)) (>= (- (- arg5 arg4) (* 2 x465)) 0)) (= arg3 arg2P)) (= arg5 arg3P)) (= (+ arg4 x465) arg4P)) (= arg6 arg7P))))
    (cfg_trans2 pc f826_0_binarySearch_LE' pc1 f1078_0_binarySearch_EQ (exists ((x477 Int) (x480 Int) (x481 Int)) (and (and (and (and (and (and (and (and (and (and (and (and (and (and (and (and (and (and (and (and (>= (- arg5 arg4) x477) (> arg4 (- 1))) (> arg5 (- 1))) (>= arg5 arg4)) (> x477 (- 1))) (> arg6 (+ arg4 x477))) (> x480 1)) (>= (+ arg4 x477) 0)) (< (- (+ arg4 x477) 1) (+ arg4 x477))) (> x481 arg3)) (<= arg1P arg1)) (<= arg1P arg2)) (> arg1 0)) (> arg2 0)) (> arg1P 0)) (< (- (- arg5 arg4) (* 2 x477)) 2)) (>= (- (- arg5 arg4) (* 2 x477)) 0)) (= arg3 arg2P)) (= arg5 arg3P)) (= (+ arg4 x477) arg4P)) (= arg6 arg7P))))
    (cfg_trans2 pc __init pc1 f1_0_main_Load true)
  )
)
